(set-info :smt-lib-version 2.6)
(set-logic QF_S)
(set-info :source |
Generated by: Shaoke Cui
Generated on: 2025-04-10
Application: Using String Solvers to solve string matching problems
Target solver: Z3, Z3alpha, Z3-noodler
Benchmarks for string matching problem with wildcards, which needs to determine whether two strings containing two wildcards can match.
Use re.allchar and (re.* re.allchar) to represent wildcards.
Determine whether the two strings match by judging whether the result of re.inter is re.none.
|)
(set-info :license "https://creativecommons.org/licenses/by/4.0/")
(set-info :category "crafted")
(set-info :status unknown)
(assert (= re.none (re.inter  (re.++ (str.to_re "sbhamde") (re.* re.allchar) (str.to_re "lc") re.allchar (str.to_re "hrlyfjcf") (re.* re.allchar) (str.to_re "uczzupk") (re.* re.allchar) (str.to_re "hkng") re.allchar (str.to_re "gbllouqoaybuyk") re.allchar (re.* re.allchar) (str.to_re "gzfrqqleskebvyzkjhmoakzfsbeeopui") re.allchar (str.to_re "eqx") re.allchar (str.to_re "rwr") re.allchar (str.to_re "aj") (re.* re.allchar) (str.to_re "qbczgzgeejkpnviosdtpgvocmmqjtgirkz") (re.* re.allchar) (str.to_re "chhflvd") re.allchar (str.to_re "pjbqerklriwinrodtwfgkuavukfukpmv") re.allchar (str.to_re "fyxiqyxwhsl") (re.* re.allchar) (str.to_re "byex") re.allchar (str.to_re "zkytedwczslhvfbvtnabqdjperf") re.allchar (str.to_re "wktclzusdtw") (re.* re.allchar) (str.to_re "npfaisrncytgfgl") re.allchar (str.to_re "x") (re.* re.allchar) (str.to_re "vksyiwhvxgyxshtzepeoxhi") re.allchar (str.to_re "l") re.allchar (str.to_re "azwkkvlgz") re.allchar (str.to_re "hfawldjik") re.allchar (str.to_re "y") re.allchar (str.to_re "yuzaobps") re.allchar (str.to_re "untlv") (re.* re.allchar) (str.to_re "bebldp") re.allchar (str.to_re "wsvxtmipelnpkbggkjtvspfgabq") (re.* re.allchar) (str.to_re "jrg") re.allchar (str.to_re "dms") (re.* re.allchar) (str.to_re "dgcnjlnpj") re.allchar (str.to_re "lqmfjbykotgqenhhngcqfsaiwesvip") re.allchar (str.to_re "lhlzj") (re.* re.allchar) (str.to_re "wnbcrbyzp") re.allchar (str.to_re "hzqkdxdbghnbjlxhscvrmn") re.allchar (str.to_re "p") (re.* re.allchar) (str.to_re "cllyetjsxuosatan") (re.* re.allchar) (str.to_re "rh") (re.* re.allchar) (str.to_re "jbwekuynpghkrtuoqpdwzzngmscvtpmuu") (re.* re.allchar) (str.to_re "fzbpmgnx") re.allchar (str.to_re "b") (re.* re.allchar) (re.* re.allchar) (str.to_re "ksbqqzpt") (re.* re.allchar) (str.to_re "ngyxakucnoxdmwafrlez") re.allchar (str.to_re "itfqeuagshiih") re.allchar (str.to_re "jgtnfktptho") (re.* re.allchar) (str.to_re "ihefsvvnvatgasueuyuuogwfiqylrkgzhdcyocuq") (re.* re.allchar) (str.to_re "qjtpoircmbskogxzjnpmoknxfdxfbtynrs") re.allchar (str.to_re "vosun") (re.* re.allchar) (str.to_re "shyzmlfhwuasvm") (re.* re.allchar) (str.to_re "jtibphspbkj") re.allchar (str.to_re "ervwofwsznfcqgnirv") (re.* re.allchar) (re.* re.allchar) (str.to_re "ek") re.allchar (str.to_re "kgk") (re.* re.allchar) (str.to_re "xpynkeyxwrerqs") (re.* re.allchar) (str.to_re "jacqt") (re.* re.allchar) (str.to_re "rigibfnnnolietwpt") re.allchar (str.to_re "qphqjvdwxogdqhwntcx") re.allchar (str.to_re "nphxsa") (re.* re.allchar) (str.to_re "wbqnmm") (re.* re.allchar) (re.* re.allchar) (str.to_re "qb") re.allchar (str.to_re "srh") (re.* re.allchar) re.allchar (str.to_re "b") (re.* re.allchar) (re.* re.allchar) (str.to_re "asrycighkeoocvgfwzndlfr") (re.* re.allchar) (str.to_re "jzghtseeeobkhn") re.allchar (str.to_re "jvmvwxoyourhws") (re.* re.allchar) (str.to_re "yygqyilsefjoquhcvjmmqnfgnmyozwiyuxuqnxoflbobynbc") (re.* re.allchar) (str.to_re "dhmjchgnqpgclwpxixzpcu") (re.* re.allchar) (re.* re.allchar) (str.to_re "tcweqbruzmoddse") re.allchar (re.* re.allchar) (str.to_re "cdryggpvnzppcgyo") (re.* re.allchar) re.allchar (str.to_re "amptl") (re.* re.allchar) (str.to_re "ugijxafdjksligiowelmqaqxqpwp") re.allchar (str.to_re "dzhiulrovibexdsymuqkezyyhfkyuuhdeibwwgbvxlsixkmwcgscq") re.allchar (str.to_re "mxrrtqevf") re.allchar (str.to_re "hqdkcs") re.allchar (re.* re.allchar) (str.to_re "tzcoktoziwaq") re.allchar (re.* re.allchar) (str.to_re "kgoqj") (re.* re.allchar) (str.to_re "diartytazj") re.allchar (str.to_re "rgwdfaiitkbqibefelnciequbxgehzkm") re.allchar (str.to_re "mwispfptueydczxqbhsmosjdlpngylzl") re.allchar (str.to_re "ndcxiq") (re.* re.allchar) (str.to_re "jrmscyhdb") (re.* re.allchar) (str.to_re "wxvxbdwxnazwifpwcenjtbfvdxonctm") (re.* re.allchar) (str.to_re "niokdptbvbg") (re.* re.allchar) (str.to_re "stse") (re.* re.allchar) (str.to_re "vlcwvten") re.allchar (str.to_re "nzhx") re.allchar (str.to_re "thiprpxseozzdfmyafsmkbap") re.allchar (str.to_re "hapwkmkpvbhjoeexqihstarobdqrt") (re.* re.allchar) (str.to_re "njh") (re.* re.allchar) (str.to_re "fpfcnuf") re.allchar (str.to_re "y") re.allchar (str.to_re "lscerlkwcse") re.allchar (re.* re.allchar) (str.to_re "fxhcxcfufvrduwdpyhbhjmotpdiovldbzyyp") (re.* re.allchar) (str.to_re "pihmfxvmjzwhbirgzqweoliyjjhbhfyswh") (re.* re.allchar) re.allchar (str.to_re "ntzvrrrmkcn") (re.* re.allchar) (str.to_re "gvhbwyvneyxffgd") re.allchar (str.to_re "zrohombdebqssjiyudcgiwzkztcji") re.allchar (str.to_re "b") re.allchar (str.to_re "gieaamozlcpg") (re.* re.allchar) (str.to_re "f") re.allchar (str.to_re "oybbj") (re.* re.allchar) re.allchar re.allchar (str.to_re "nghelsabhmacoaebxf") (re.* re.allchar) (str.to_re "xdnzsri") re.allchar re.allchar (re.* re.allchar) (str.to_re "ytsitkes") re.allchar (str.to_re "djfynjzqkiuhifz") (re.* re.allchar) (str.to_re "vsgcamzodhftbkzyasaigjzhtspz") (re.* re.allchar) (str.to_re "irmrplsnwgohtkl") re.allchar (str.to_re "kldzlbkrmhyw") re.allchar (str.to_re "lqcifcibobo") (re.* re.allchar) (str.to_re "bzbnpsnoqhydczacclox") (re.* re.allchar) (str.to_re "kevsphdnnmeurtglgyqkeglfxsyv") re.allchar (str.to_re "rrrovoffjxhcria") re.allchar (str.to_re "zwzscnslihbttxzn") (re.* re.allchar) (str.to_re "bbileg") (re.* re.allchar) (str.to_re "tzijbxp") (re.* re.allchar) (str.to_re "mhhshkvsfa") re.allchar re.allchar re.allchar (str.to_re "vsisbt") re.allchar (str.to_re "vorokwehjinbxvmuqyi") (re.* re.allchar) (str.to_re "ncxhnkq") (re.* re.allchar) (str.to_re "vagddbxopb") re.allchar (str.to_re "taohosyhfn") (re.* re.allchar) (str.to_re "qkxyrkfl") re.allchar (str.to_re "mb") re.allchar (str.to_re "whnwfhwsfvzvfusjtg") (re.* re.allchar) (str.to_re "kdcknjfrifxgilggserkvjgevowzdmwkmitjbh") re.allchar (str.to_re "apffb") (re.* re.allchar) (str.to_re "awxnoqkqkaazannkrdscaopkz") (re.* re.allchar) (str.to_re "aedrtf") (re.* re.allchar) (str.to_re "uivqqexrabgjhbhgqewti") re.allchar (str.to_re "duxcpydjsipiqkbmcbqzfj") (re.* re.allchar) (str.to_re "kyukk") (re.* re.allchar) (str.to_re "nxcdp") re.allchar (str.to_re "gicsbokw") re.allchar (str.to_re "toqykmyukeymxlertfqcbdhzbf") re.allchar (str.to_re "pjjpyqmez") (re.* re.allchar) (str.to_re "dkyrfjuxmrfjptdxdbearyeapxjy") (re.* re.allchar) (str.to_re "xcfjdtvbcowfjjezlgwoxgmr") (re.* re.allchar) (str.to_re "rxsikszciplnlszmaxmvshxxdypquzdh") re.allchar (str.to_re "dcmomdq") (re.* re.allchar) (str.to_re "wrtkaheflkjq") (re.* re.allchar) (str.to_re "axp") re.allchar (str.to_re "vcnlkmpwyrghknyzrrihvdl") re.allchar (str.to_re "piseuogsixjbmvnlfexhtwbyduxaqjhqdd") re.allchar (str.to_re "y") (re.* re.allchar) (str.to_re "bcbajo") re.allchar (str.to_re "rihrgigdetsa") (re.* re.allchar) (str.to_re "rndweyzr") (re.* re.allchar) (str.to_re "ddskizvoqrvssounrh") (re.* re.allchar) (str.to_re "ximgfzjlaqzevdstyux") re.allchar (str.to_re "cnwpdgvxozktfkkglhsjujvcqqirdlwmlropgihwccagrblodlxtqtcvqiuemckzgzthuymiknk") (re.* re.allchar) re.allchar (str.to_re "czvfmstgwifqaqj") (re.* re.allchar) (str.to_re "bamexusk") (re.* re.allchar) (str.to_re "xvmtrqyshdfas") re.allchar (str.to_re "k") re.allchar (str.to_re "pcsuxfqxujbuaaudfuontpwy") (re.* re.allchar) (str.to_re "xavpscojgehmof") re.allchar (str.to_re "vsbhjwqtltbttktzattvsknqquwd") (re.* re.allchar) (str.to_re "b") re.allchar (str.to_re "pulnqbbjisvtljugzzlxwzghgzsdhvbafycjihl") re.allchar (str.to_re "wb") re.allchar (str.to_re "pdirkqayerujqnevnvpxhsegejnqpfmmihyxjgkwndaj") (re.* re.allchar) (str.to_re "fnppkq") (re.* re.allchar) (str.to_re "qv") (re.* re.allchar) (re.* re.allchar) (str.to_re "jejlyumtqwbrpmjjj") re.allchar (str.to_re "xclv") re.allchar (str.to_re "hffpaydy") (re.* re.allchar) (str.to_re "c") re.allchar (str.to_re "ghrcdxu") (re.* re.allchar) (str.to_re "bbdxypqngtiyzpewjpykxhw") (re.* re.allchar) (str.to_re "fguss") (re.* re.allchar) (str.to_re "rhac") re.allchar (str.to_re "lyzxcwknyhe") re.allchar (str.to_re "dhmyitp") (re.* re.allchar) (str.to_re "tsn") re.allchar (str.to_re "yyn") re.allchar (str.to_re "wsawde") re.allchar (str.to_re "aoupqtwygoypjbrhseqeschnnz") re.allchar (str.to_re "ysftsxajqu") re.allchar (str.to_re "kkitnuqep") (re.* re.allchar) (str.to_re "c") re.allchar (str.to_re "ofsgyboyej") (re.* re.allchar) (str.to_re "hbiaoylnywfpqnpdh") (re.* re.allchar) (str.to_re "ecbmkbrzvq") )   (re.++ (str.to_re "vqqacex") (re.* re.allchar) (str.to_re "cuhghbvv") (re.* re.allchar) (str.to_re "fntfnsq") (re.* re.allchar) (str.to_re "slj") re.allchar (str.to_re "rbtu") (re.* re.allchar) (str.to_re "tpxzpcwnydijgcwwlmouzd") re.allchar (str.to_re "kjcwdn") re.allchar re.allchar (str.to_re "jzzocdxbxyocyehesjxkyjxhilrolxhgxtkgqqkthjcwwogmggxajaxnodmstb") re.allchar (str.to_re "ndrxw") re.allchar (str.to_re "gejjlmcnwx") (re.* re.allchar) (str.to_re "vsmzrykx") (re.* re.allchar) (str.to_re "sr") re.allchar (str.to_re "sqjoxnp") re.allchar (str.to_re "xkjyzhwafcliwheixf") (re.* re.allchar) (str.to_re "hmqongdbodxifu") re.allchar (str.to_re "iiwhozmekszbpihtovraorv") (re.* re.allchar) (str.to_re "iyizcuxwfabvapeokbd") (re.* re.allchar) (str.to_re "loa") re.allchar (str.to_re "ohtusqbzcuxvm") re.allchar (str.to_re "wwmsqt") re.allchar (str.to_re "rdtq") re.allchar (str.to_re "matauwotn") (re.* re.allchar) (str.to_re "krlqdztvprfpzbchwz") (re.* re.allchar) (str.to_re "jxjpaybhf") re.allchar (str.to_re "oxmoyvjipnwe") (re.* re.allchar) (str.to_re "iavo") re.allchar (str.to_re "shxntxttfngbejcp") re.allchar re.allchar (re.* re.allchar) (str.to_re "olkviswe") (re.* re.allchar) (str.to_re "nrsmh") re.allchar (str.to_re "zxwaqppfhqsayqcblurfjwgmtqzwle") (re.* re.allchar) (str.to_re "djkghjhvsvuuouecgrfphci") re.allchar (str.to_re "wciqbufffvmicmcrkgfbm") re.allchar (str.to_re "pdapuetaqcn") re.allchar (str.to_re "g") re.allchar (str.to_re "up") (re.* re.allchar) (str.to_re "jbjnorblwwmirpglcjabekbvogtqbzzorffbbvzdhmrph") (re.* re.allchar) (str.to_re "wkqsrzxkdpfesmbdyjagxsxxh") (re.* re.allchar) (str.to_re "l") re.allchar (str.to_re "kuzasoqbodgsbkcjd") re.allchar (str.to_re "esxpvrwgo") re.allchar (str.to_re "ejd") (re.* re.allchar) (str.to_re "vvlfckoac") (re.* re.allchar) (str.to_re "nnhnaabqffhv") (re.* re.allchar) (str.to_re "l") re.allchar (str.to_re "rvgapbkjusaobjbcr") (re.* re.allchar) (str.to_re "wdhtkutdjltcn") re.allchar (str.to_re "ejdgyckqd") re.allchar (str.to_re "xcpnjsncjennaytfi") (re.* re.allchar) (re.* re.allchar) (str.to_re "uuy") (re.* re.allchar) (re.* re.allchar) (str.to_re "kzgmbmrpktupfzdftudkgt") (re.* re.allchar) (str.to_re "btjwftsfhfyekspxdlnmfsecduiwsa") re.allchar (str.to_re "zltlvolpbjzaltnc") re.allchar (str.to_re "orgw") re.allchar (str.to_re "uqzdkyvjvmvqgto") re.allchar (str.to_re "psbpavzyqhklegaihpme") (re.* re.allchar) (str.to_re "zmcineoebyzxzqne") re.allchar (str.to_re "a") (re.* re.allchar) (str.to_re "vujzyealapfyrxlhh") (re.* re.allchar) (str.to_re "xfzdiozdhhgzzvqcqli") re.allchar (str.to_re "pxweh") (re.* re.allchar) (str.to_re "lymqrnuakuuzqocvumrwibzftlhf") re.allchar (str.to_re "kjcjd") (re.* re.allchar) (str.to_re "ouqrcohg") re.allchar (str.to_re "zbbeewbyoeuevzszy") (re.* re.allchar) (str.to_re "dkkkfxngaaptteqbxkzdjpclkybqh") (re.* re.allchar) (str.to_re "wdaggbrtuvfsylccfgbl") (re.* re.allchar) (str.to_re "wqfazcmbtowlivqj") re.allchar (str.to_re "zj") (re.* re.allchar) (str.to_re "p") re.allchar (str.to_re "qo") re.allchar (str.to_re "i") (re.* re.allchar) (str.to_re "edcduhkvkxzp") re.allchar re.allchar (str.to_re "zewlmemebklwqwcvi") (re.* re.allchar) (str.to_re "uxmaxzpvndgccbvodxodjlanwzjbdiehpypwwwy") re.allchar (str.to_re "vhowuetdupfd") re.allchar (str.to_re "eovw") re.allchar (str.to_re "wkelorpg") re.allchar (str.to_re "cnn") re.allchar (str.to_re "ltnbnaamoncloeqplrdzcumdroals") (re.* re.allchar) (str.to_re "vs") re.allchar (str.to_re "uhuermawtmpzgmcsnwybtjohrfcwsdgalglmpukjhqtjiitezvbpz") re.allchar (str.to_re "rnyyzdwiwxeujc") (re.* re.allchar) (str.to_re "fufhyl") (re.* re.allchar) (str.to_re "bkscooaaodgo") (re.* re.allchar) (str.to_re "cnud") re.allchar (str.to_re "fkgfx") re.allchar (re.* re.allchar) (str.to_re "sldb") (re.* re.allchar) (str.to_re "tdbpna") (re.* re.allchar) (str.to_re "nxcggyzrkjbuhhwohdjegxacyxgibytbsqkshdoitaqjdwhyvluyetgnhqcbjddvpx") re.allchar (str.to_re "y") re.allchar (str.to_re "dsnaowaerpgeemiduewonbln") (re.* re.allchar) (str.to_re "xvhnburfcp") (re.* re.allchar) (str.to_re "tnxu") (re.* re.allchar) (str.to_re "wgsxlzzgyjtizliwvhjoybrho") re.allchar (str.to_re "fmftpiaczrptxsqkcxiccessamyqjblrsiirtcnxnu") (re.* re.allchar) (str.to_re "wtfaradlpxrrv") (re.* re.allchar) (str.to_re "frkwnayhipoldwxstqz") re.allchar (str.to_re "mnmeipivnejgavsm") re.allchar (str.to_re "vkdogxzwigpivhhz") re.allchar (str.to_re "hupngzhhcvikpphopfczhqbnu") re.allchar (str.to_re "vhvvmgllb") (re.* re.allchar) (str.to_re "ziyblmrfvrahklaaru") (re.* re.allchar) (str.to_re "mmbeq") re.allchar (str.to_re "qnzcxdycpvchvg") (re.* re.allchar) (str.to_re "guem") (re.* re.allchar) (str.to_re "yuzapjsfomwdllgpjz") (re.* re.allchar) (str.to_re "hgknueqh") (re.* re.allchar) (str.to_re "ugsmhpmrd") re.allchar (str.to_re "vsazsbkevxugfdu") re.allchar (str.to_re "zsvhjbvuyejx") re.allchar (str.to_re "oienp") re.allchar (str.to_re "w") (re.* re.allchar) (str.to_re "dqtyifzsraskxmpma") re.allchar (str.to_re "z") (re.* re.allchar) (str.to_re "blolxqrvfumknibo") (re.* re.allchar) (str.to_re "xfg") (re.* re.allchar) (str.to_re "vlkqxhqxzfzuhqze") (re.* re.allchar) (str.to_re "f") re.allchar (str.to_re "moavuywyiuaiomfdvpgmdeqwzfws") (re.* re.allchar) (str.to_re "cs") (re.* re.allchar) (str.to_re "edzy") (re.* re.allchar) (str.to_re "tshd") (re.* re.allchar) (str.to_re "jfqsxfmfvtf") re.allchar (str.to_re "rnizluipdmlubpypjrrdldjkmhrlsplggtsdw") re.allchar (str.to_re "yluvzdpzxoe") (re.* re.allchar) (str.to_re "skpew") (re.* re.allchar) (str.to_re "gjgjdorammwqcqrkrbqqthtglsgxparhwijctkejrbplheuksxaolbpstuvwvh") (re.* re.allchar) (str.to_re "fcpkvcydusicirqzwscqirwyw") re.allchar (str.to_re "u") (re.* re.allchar) (str.to_re "gnqeltmnvhbgbnoquuj") (re.* re.allchar) (str.to_re "ixs") (re.* re.allchar) (str.to_re "ujlamwmjqvhxq") re.allchar (str.to_re "irinzhufdc") re.allchar (str.to_re "wt") re.allchar (str.to_re "vdgixftro") (re.* re.allchar) (str.to_re "sppkmaeyqagi") re.allchar (str.to_re "tfwovspupbjhampkyfoumo") re.allchar (str.to_re "yrddtyvojirxoislxcuibyjojlwp") (re.* re.allchar) re.allchar (str.to_re "vbppz") (re.* re.allchar) (str.to_re "ntvlshytamful") re.allchar (str.to_re "qsmh") re.allchar (str.to_re "ugaxrhuxcbmg") (re.* re.allchar) (str.to_re "sgseoexrylxrfuonoxqvspmuauws") (re.* re.allchar) (str.to_re "exphvcciaueojsukyeslurksk") re.allchar (str.to_re "yxonnydexcxwwsghcztbvvjeqfyvfmlf") re.allchar (str.to_re "qsdpmeqa") re.allchar (str.to_re "b") re.allchar (str.to_re "nngzlbmuwvqzb") (re.* re.allchar) (str.to_re "htynpkcw") re.allchar (str.to_re "endxmmcaagsw") (re.* re.allchar) (str.to_re "e") re.allchar (str.to_re "elrvswisy") (re.* re.allchar) (str.to_re "dpkkhombpzvquqohsykbpqdoxp") re.allchar (str.to_re "mjymbhum") re.allchar re.allchar (str.to_re "vtoeckextzmqmguyxknfusdllokdf") re.allchar (str.to_re "vatqbxyjmdblckey") (re.* re.allchar) (re.* re.allchar) (str.to_re "z") (re.* re.allchar) (str.to_re "huobbgqmwwou") re.allchar (str.to_re "elatapv") re.allchar (str.to_re "drnieqdprjlasegouirnzodpafbnpbewklnjtliasxegiijgaeckkjlkpkvzxsrk") re.allchar (str.to_re "gln") (re.* re.allchar) (str.to_re "jh") re.allchar (str.to_re "gkshzp") re.allchar (str.to_re "blzwbnzacg") re.allchar (str.to_re "w") (re.* re.allchar) (str.to_re "ykxxmzkrcoe") re.allchar (str.to_re "jearbuxdqpodkwklkmulcbmklqdwxia") re.allchar (str.to_re "z") re.allchar (str.to_re "ocxvyaf") (re.* re.allchar) (str.to_re "gxwpajjigzgqkgwbsnqxkvwujdlklho") (re.* re.allchar) (str.to_re "hmiqiwmji") (re.* re.allchar) (str.to_re "tlfjovkpwubmkuyjxgnfedumkpparsbuorflj") re.allchar (str.to_re "qtnqkhsjfdqjciqrybqs") (re.* re.allchar) (re.* re.allchar) (str.to_re "bbxogekujaoqujfibdnihlgqiomfhfggwlsrqmdc") (re.* re.allchar) (str.to_re "qhyfzgcdpperj") re.allchar (str.to_re "j") re.allchar (str.to_re "bscrhnv") (re.* re.allchar) (str.to_re "aanlwp") (re.* re.allchar) (str.to_re "oy") re.allchar re.allchar (str.to_re "thymbcsmmkirpglzxftubzlqkjmrnjcufwktviypjsxikrwxmg") (re.* re.allchar) (str.to_re "go") (re.* re.allchar) (str.to_re "wdnaeuc") (re.* re.allchar) (str.to_re "udra") re.allchar (str.to_re "vfacvedfzcpcwg") (re.* re.allchar) (str.to_re "anmumqayys") (re.* re.allchar) (str.to_re "eazkczamjbecoibdbo") (re.* re.allchar) (str.to_re "kswnawguyxjsgg") re.allchar (str.to_re "ankpsfiqe") re.allchar (str.to_re "xpgvnasgxnxhwfyyaterkao") re.allchar (str.to_re "lbb") (re.* re.allchar) (str.to_re "zpsvzjrogblckccupzlqn") re.allchar (str.to_re "adwzrqdlnehy") re.allchar (str.to_re "axftwmdsjvxzsuxnumw") (re.* re.allchar) (str.to_re "loxwbrrxyhjsdxawncv") re.allchar (str.to_re "ca") (re.* re.allchar) (str.to_re "reqgf") re.allchar (str.to_re "iifncx") re.allchar (str.to_re "ofvvdpjigdzeyfbmf") re.allchar (str.to_re "drcaj") re.allchar (str.to_re "gy") (re.* re.allchar) (str.to_re "khyjvhcrbj") (re.* re.allchar) (str.to_re "vnqscejlghhoysycytgmaqe") (re.* re.allchar) (str.to_re "rsjaucvendukfrf") (re.* re.allchar) (str.to_re "sc") re.allchar (str.to_re "whtujsyfby") re.allchar (str.to_re "kqwujcv") (re.* re.allchar) (str.to_re "ppnjtte") (re.* re.allchar) (str.to_re "uqpyoczvqzrnepscpahtydaajznvvgirhraibecagmkriieljayzdidcg") re.allchar (str.to_re "kcgjfaa") (re.* re.allchar) (str.to_re "nmovkdg") re.allchar (str.to_re "qqm") (re.* re.allchar) (str.to_re "xbxibcdoyud") re.allchar (str.to_re "aqexnyzlatmzwyzkvrurvujdhammqlyyurjeuwxnkbkctxoijy") re.allchar (str.to_re "lcqy") re.allchar (str.to_re "dddhbczrkajrutuzueknj") re.allchar (str.to_re "rodtmc") re.allchar (str.to_re "vvjhxhxv") re.allchar (str.to_re "uvdmh") re.allchar (str.to_re "smmxqnibggmxcrbjwnpiwpvppxat") (re.* re.allchar) (str.to_re "nkiii") re.allchar (str.to_re "kutgxvkpxgqmnwdy") re.allchar (str.to_re "wswzqupnczyngfvirxdh") (re.* re.allchar) (str.to_re "gmvyzfxoksvot") (re.* re.allchar) (str.to_re "tkrhqpdnchxhivnoccydnkrsbhhoxqvxzqexnntrrpegtapxkepxbmcwilrya") (re.* re.allchar) (str.to_re "vlsnzymgwdqqvbmend") (re.* re.allchar) (str.to_re "cglrxfohf") re.allchar (str.to_re "aefettbmiamsswmmeftfpkdxpbhoebvsxkifxuocxajjvgk") re.allchar re.allchar (str.to_re "ihzpbzfywl") re.allchar (str.to_re "ubkwhayuij") re.allchar (str.to_re "pppsexgktmo") (re.* re.allchar) (str.to_re "saslhhc") (re.* re.allchar) (str.to_re "kodfazjzlakrsmdnv") re.allchar (str.to_re "qdahavyfwnzxd") re.allchar (str.to_re "ofaemmcxdbb") (re.* re.allchar) (re.* re.allchar) (str.to_re "vbk") (re.* re.allchar) (str.to_re "wc") re.allchar (str.to_re "kzldqgghpbewb") re.allchar (str.to_re "rk") (re.* re.allchar) (str.to_re "zemlniecf") re.allchar (str.to_re "quootjcxnqjwyd") (re.* re.allchar) (str.to_re "mbkqemwmnd") re.allchar (str.to_re "rtzzzwjohlsflphgbnkvg") (re.* re.allchar) (str.to_re "tsxoyogkaouxflwmonzhpt") re.allchar (str.to_re "kkntu") (re.* re.allchar) (str.to_re "pd") (re.* re.allchar) (str.to_re "ccsadtgwveptkemfrhvmgojk") re.allchar re.allchar (str.to_re "z") (re.* re.allchar) (str.to_re "wxdeg") re.allchar (str.to_re "cmhdxkcyclnpcwsaxuyzoqcybowxgosomtj") (re.* re.allchar) (str.to_re "ucnzayckchgqtljl") (re.* re.allchar) (str.to_re "gjbevhyeeuxhtbefeao") re.allchar (str.to_re "mqjpyxdjiybjidckevicylpfsgzmtzona") (re.* re.allchar) (str.to_re "yeaozmzovh") (re.* re.allchar) (str.to_re "bxcxhidwqvgpibkx") (re.* re.allchar) (str.to_re "bqbww") (re.* re.allchar) (str.to_re "oesnljagsr") (re.* re.allchar) (str.to_re "vyvolndeyblm") (re.* re.allchar) (str.to_re "exhctqrjaaijfihqchfzmisguhcitbdin") re.allchar (str.to_re "kqn") re.allchar (str.to_re "udqqv") re.allchar (str.to_re "pgsszwxe") (re.* re.allchar) (str.to_re "wwpnkmmflurmfpvmvbjclbknqbmqzmipidh") re.allchar (str.to_re "gwmldkygirt") (re.* re.allchar) (str.to_re "dcgnnc") (re.* re.allchar) (str.to_re "etmpib") (re.* re.allchar) (str.to_re "ln") (re.* re.allchar) (str.to_re "imuyjfvtk") (re.* re.allchar) (str.to_re "xtkkhpf") (re.* re.allchar) (str.to_re "cohnsvysdiwitzw") (re.* re.allchar) (str.to_re "tkxd") re.allchar (str.to_re "ddic") (re.* re.allchar) (re.* re.allchar) (str.to_re "woeuj") re.allchar (str.to_re "foospgwfybscfaoy") re.allchar (str.to_re "qfifpd") re.allchar (str.to_re "ybqwwdgo") (re.* re.allchar) (str.to_re "qw") re.allchar (str.to_re "kciajiauttwg") (re.* re.allchar) (str.to_re "iydewcxnlykvavahaotbbge") re.allchar re.allchar (str.to_re "v") re.allchar (str.to_re "zxhktbdw") re.allchar (re.* re.allchar) re.allchar (str.to_re "vcimsucryx") (re.* re.allchar) (str.to_re "mqgiyuzgo") (re.* re.allchar) (str.to_re "pzg") (re.* re.allchar) (str.to_re "go") re.allchar (str.to_re "xvkczvhare") re.allchar (str.to_re "cggeanpcmlbpm") re.allchar (str.to_re "u") re.allchar (str.to_re "yfj") (re.* re.allchar) re.allchar (str.to_re "afwff") (re.* re.allchar) (str.to_re "qwicd") (re.* re.allchar) (str.to_re "h") (re.* re.allchar) (str.to_re "mnigtnackwsoxajmpjtdb") re.allchar (re.* re.allchar) (str.to_re "nu") (re.* re.allchar) (str.to_re "zvftitllnm") re.allchar (str.to_re "v") (re.* re.allchar) (str.to_re "aqqeqlsijtxibwyycmzqikx") re.allchar (str.to_re "jvqvhioavn") re.allchar (re.* re.allchar) (str.to_re "ghrqhnkncssnmkckzyj") (re.* re.allchar) (str.to_re "ymeunskitrjojq") )  )))
(check-sat)
(exit)
